; benchmark generated from python API
(set-info :status unknown)
(declare-fun cell_1_8 () Int)
(declare-fun cell_1_9 () Int)
(declare-fun cell_2_2 () Int)
(declare-fun cell_2_5 () Int)
(declare-fun cell_3_1 () Int)
(declare-fun cell_3_4 () Int)
(declare-fun cell_4_2 () Int)
(declare-fun cell_4_9 () Int)
(declare-fun cell_5_1 () Int)
(declare-fun cell_6_6 () Int)
(declare-fun cell_7_7 () Int)
(declare-fun cell_8_5 () Int)
(declare-fun cell_9_3 () Int)
(declare-fun cell_1_1 () Int)
(declare-fun cell_2_1 () Int)
(declare-fun cell_4_1 () Int)
(declare-fun cell_6_1 () Int)
(declare-fun cell_7_1 () Int)
(declare-fun cell_8_1 () Int)
(declare-fun cell_9_1 () Int)
(declare-fun cell_1_2 () Int)
(declare-fun cell_3_2 () Int)
(declare-fun cell_5_2 () Int)
(declare-fun cell_6_2 () Int)
(declare-fun cell_7_2 () Int)
(declare-fun cell_8_2 () Int)
(declare-fun cell_9_2 () Int)
(declare-fun cell_1_3 () Int)
(declare-fun cell_2_3 () Int)
(declare-fun cell_3_3 () Int)
(declare-fun cell_4_3 () Int)
(declare-fun cell_5_3 () Int)
(declare-fun cell_6_3 () Int)
(declare-fun cell_7_3 () Int)
(declare-fun cell_8_3 () Int)
(declare-fun cell_1_4 () Int)
(declare-fun cell_2_4 () Int)
(declare-fun cell_4_4 () Int)
(declare-fun cell_5_4 () Int)
(declare-fun cell_6_4 () Int)
(declare-fun cell_7_4 () Int)
(declare-fun cell_8_4 () Int)
(declare-fun cell_9_4 () Int)
(declare-fun cell_1_5 () Int)
(declare-fun cell_3_5 () Int)
(declare-fun cell_4_5 () Int)
(declare-fun cell_5_5 () Int)
(declare-fun cell_6_5 () Int)
(declare-fun cell_7_5 () Int)
(declare-fun cell_9_5 () Int)
(declare-fun cell_1_6 () Int)
(declare-fun cell_2_6 () Int)
(declare-fun cell_3_6 () Int)
(declare-fun cell_4_6 () Int)
(declare-fun cell_5_6 () Int)
(declare-fun cell_7_6 () Int)
(declare-fun cell_8_6 () Int)
(declare-fun cell_9_6 () Int)
(declare-fun cell_1_7 () Int)
(declare-fun cell_2_7 () Int)
(declare-fun cell_3_7 () Int)
(declare-fun cell_4_7 () Int)
(declare-fun cell_5_7 () Int)
(declare-fun cell_6_7 () Int)
(declare-fun cell_8_7 () Int)
(declare-fun cell_9_7 () Int)
(declare-fun cell_2_8 () Int)
(declare-fun cell_3_8 () Int)
(declare-fun cell_4_8 () Int)
(declare-fun cell_5_8 () Int)
(declare-fun cell_6_8 () Int)
(declare-fun cell_7_8 () Int)
(declare-fun cell_8_8 () Int)
(declare-fun cell_9_8 () Int)
(declare-fun cell_2_9 () Int)
(declare-fun cell_3_9 () Int)
(declare-fun cell_5_9 () Int)
(declare-fun cell_6_9 () Int)
(declare-fun cell_7_9 () Int)
(declare-fun cell_8_9 () Int)
(declare-fun cell_9_9 () Int)
(assert
 (= cell_1_8 1))
(assert
 (= cell_1_9 2))
(assert
 (= cell_2_2 1))
(assert
 (= cell_2_5 2))
(assert
 (= cell_3_1 2))
(assert
 (= cell_3_4 1))
(assert
 (= cell_4_2 2))
(assert
 (= cell_4_9 1))
(assert
 (= cell_5_1 1))
(assert
 (= cell_6_6 1))
(assert
 (= cell_7_7 1))
(assert
 (= cell_8_5 1))
(assert
 (= cell_9_3 1))
(assert
 (let (($x3180 (= cell_1_1 9)))
 (let (($x969 (= cell_1_1 8)))
 (let (($x2601 (= cell_1_1 7)))
 (let (($x408 (= cell_1_1 6)))
 (let (($x520 (= cell_1_1 5)))
 (let (($x2906 (= cell_1_1 4)))
 (let (($x2901 (= cell_1_1 3)))
 (let (($x2053 (= cell_1_1 2)))
 (let (($x2377 (= cell_1_1 1)))
 (or $x2377 $x2053 $x2901 $x2906 $x520 $x408 $x2601 $x969 $x3180)))))))))))
(assert
 (let (($x2084 (= cell_2_1 9)))
 (let (($x2004 (= cell_2_1 8)))
 (let (($x2028 (= cell_2_1 7)))
 (let (($x1329 (= cell_2_1 6)))
 (let (($x2291 (= cell_2_1 5)))
 (let (($x1695 (= cell_2_1 4)))
 (let (($x2855 (= cell_2_1 3)))
 (let (($x1930 (= cell_2_1 2)))
 (let (($x3271 (= cell_2_1 1)))
 (or $x3271 $x1930 $x2855 $x1695 $x2291 $x1329 $x2028 $x2004 $x2084)))))))))))
(assert
 (let (($x1036 (= cell_3_1 2)))
 (or (= cell_3_1 1) $x1036 (= cell_3_1 3) (= cell_3_1 4) (= cell_3_1 5) (= cell_3_1 6) (= cell_3_1 7) (= cell_3_1 8) (= cell_3_1 9))))
(assert
 (let (($x2138 (= cell_4_1 9)))
 (let (($x144 (= cell_4_1 8)))
 (let (($x1077 (= cell_4_1 7)))
 (let (($x1054 (= cell_4_1 6)))
 (let (($x1616 (= cell_4_1 5)))
 (let (($x1762 (= cell_4_1 4)))
 (let (($x494 (= cell_4_1 3)))
 (let (($x2367 (= cell_4_1 2)))
 (let (($x1924 (= cell_4_1 1)))
 (or $x1924 $x2367 $x494 $x1762 $x1616 $x1054 $x1077 $x144 $x2138)))))))))))
(assert
 (let (($x3024 (= cell_5_1 1)))
 (or $x3024 (= cell_5_1 2) (= cell_5_1 3) (= cell_5_1 4) (= cell_5_1 5) (= cell_5_1 6) (= cell_5_1 7) (= cell_5_1 8) (= cell_5_1 9))))
(assert
 (let (($x2279 (= cell_6_1 9)))
 (let (($x216 (= cell_6_1 8)))
 (let (($x1357 (= cell_6_1 7)))
 (let (($x728 (= cell_6_1 6)))
 (let (($x310 (= cell_6_1 5)))
 (let (($x3138 (= cell_6_1 4)))
 (let (($x774 (= cell_6_1 3)))
 (let (($x299 (= cell_6_1 2)))
 (let (($x3205 (= cell_6_1 1)))
 (or $x3205 $x299 $x774 $x3138 $x310 $x728 $x1357 $x216 $x2279)))))))))))
(assert
 (let (($x2048 (= cell_7_1 9)))
 (let (($x2839 (= cell_7_1 8)))
 (let (($x1290 (= cell_7_1 7)))
 (let (($x2058 (= cell_7_1 6)))
 (let (($x2481 (= cell_7_1 5)))
 (let (($x14 (= cell_7_1 4)))
 (let (($x2248 (= cell_7_1 3)))
 (let (($x3389 (= cell_7_1 2)))
 (let (($x2860 (= cell_7_1 1)))
 (or $x2860 $x3389 $x2248 $x14 $x2481 $x2058 $x1290 $x2839 $x2048)))))))))))
(assert
 (let (($x313 (= cell_8_1 9)))
 (let (($x2851 (= cell_8_1 8)))
 (let (($x925 (= cell_8_1 7)))
 (let (($x2730 (= cell_8_1 6)))
 (let (($x1808 (= cell_8_1 5)))
 (let (($x2011 (= cell_8_1 4)))
 (let (($x1712 (= cell_8_1 3)))
 (let (($x348 (= cell_8_1 2)))
 (let (($x1125 (= cell_8_1 1)))
 (or $x1125 $x348 $x1712 $x2011 $x1808 $x2730 $x925 $x2851 $x313)))))))))))
(assert
 (let (($x569 (= cell_9_1 9)))
 (let (($x1961 (= cell_9_1 8)))
 (let (($x996 (= cell_9_1 7)))
 (let (($x1964 (= cell_9_1 6)))
 (let (($x529 (= cell_9_1 5)))
 (let (($x3328 (= cell_9_1 4)))
 (let (($x3129 (= cell_9_1 3)))
 (let (($x3196 (= cell_9_1 2)))
 (let (($x778 (= cell_9_1 1)))
 (or $x778 $x3196 $x3129 $x3328 $x529 $x1964 $x996 $x1961 $x569)))))))))))
(assert
 (let (($x2190 (= cell_1_2 9)))
 (let (($x438 (= cell_1_2 8)))
 (let (($x1777 (= cell_1_2 7)))
 (let (($x1857 (= cell_1_2 6)))
 (let (($x1458 (= cell_1_2 5)))
 (let (($x2189 (= cell_1_2 4)))
 (let (($x8092 (= cell_1_2 3)))
 (let (($x403 (= cell_1_2 2)))
 (let (($x3175 (= cell_1_2 1)))
 (or $x3175 $x403 $x8092 $x2189 $x1458 $x1857 $x1777 $x438 $x2190)))))))))))
(assert
 (let (($x1934 (= cell_2_2 1)))
 (or $x1934 (= cell_2_2 2) (= cell_2_2 3) (= cell_2_2 4) (= cell_2_2 5) (= cell_2_2 6) (= cell_2_2 7) (= cell_2_2 8) (= cell_2_2 9))))
(assert
 (let (($x1557 (= cell_3_2 9)))
 (let (($x198 (= cell_3_2 8)))
 (let (($x1133 (= cell_3_2 7)))
 (let (($x229 (= cell_3_2 6)))
 (let (($x1661 (= cell_3_2 5)))
 (let (($x3391 (= cell_3_2 4)))
 (let (($x2666 (= cell_3_2 3)))
 (let (($x3369 (= cell_3_2 2)))
 (let (($x861 (= cell_3_2 1)))
 (or $x861 $x3369 $x2666 $x3391 $x1661 $x229 $x1133 $x198 $x1557)))))))))))
(assert
 (let (($x57 (= cell_4_2 2)))
 (or (= cell_4_2 1) $x57 (= cell_4_2 3) (= cell_4_2 4) (= cell_4_2 5) (= cell_4_2 6) (= cell_4_2 7) (= cell_4_2 8) (= cell_4_2 9))))
(assert
 (let (($x66 (= cell_5_2 2)))
 (let (($x1278 (= cell_5_2 1)))
 (or $x1278 $x66 (= cell_5_2 3) (= cell_5_2 4) (= cell_5_2 5) (= cell_5_2 6) (= cell_5_2 7) (= cell_5_2 8) (= cell_5_2 9)))))
(assert
 (let (($x2795 (= cell_6_2 9)))
 (let (($x104 (= cell_6_2 8)))
 (let (($x2092 (= cell_6_2 7)))
 (let (($x2475 (= cell_6_2 6)))
 (let (($x4103 (= cell_6_2 5)))
 (let (($x862 (= cell_6_2 4)))
 (let (($x2874 (= cell_6_2 3)))
 (let (($x2771 (= cell_6_2 2)))
 (let (($x258 (= cell_6_2 1)))
 (or $x258 $x2771 $x2874 $x862 $x4103 $x2475 $x2092 $x104 $x2795)))))))))))
(assert
 (let (($x1374 (= cell_7_2 9)))
 (let (($x2763 (= cell_7_2 8)))
 (let (($x1525 (= cell_7_2 7)))
 (let (($x3130 (= cell_7_2 6)))
 (let (($x2364 (= cell_7_2 5)))
 (let (($x613 (= cell_7_2 4)))
 (let (($x2895 (= cell_7_2 3)))
 (let (($x2570 (= cell_7_2 2)))
 (let (($x2705 (= cell_7_2 1)))
 (or $x2705 $x2570 $x2895 $x613 $x2364 $x3130 $x1525 $x2763 $x1374)))))))))))
(assert
 (let (($x2319 (= cell_8_2 9)))
 (let (($x2332 (= cell_8_2 8)))
 (let (($x1155 (= cell_8_2 7)))
 (let (($x2543 (= cell_8_2 6)))
 (let (($x1512 (= cell_8_2 5)))
 (let (($x3141 (= cell_8_2 4)))
 (let (($x2073 (= cell_8_2 3)))
 (let (($x3076 (= cell_8_2 2)))
 (let (($x2007 (= cell_8_2 1)))
 (or $x2007 $x3076 $x2073 $x3141 $x1512 $x2543 $x1155 $x2332 $x2319)))))))))))
(assert
 (let (($x2815 (= cell_9_2 9)))
 (let (($x1334 (= cell_9_2 8)))
 (let (($x1099 (= cell_9_2 7)))
 (let (($x3025 (= cell_9_2 6)))
 (let (($x2039 (= cell_9_2 5)))
 (let (($x609 (= cell_9_2 4)))
 (let (($x2640 (= cell_9_2 3)))
 (let (($x1140 (= cell_9_2 2)))
 (let (($x207 (= cell_9_2 1)))
 (or $x207 $x1140 $x2640 $x609 $x2039 $x3025 $x1099 $x1334 $x2815)))))))))))
(assert
 (let (($x374 (= cell_1_3 9)))
 (let (($x1359 (= cell_1_3 8)))
 (let (($x551 (= cell_1_3 7)))
 (let (($x2061 (= cell_1_3 6)))
 (let (($x1882 (= cell_1_3 5)))
 (let (($x1399 (= cell_1_3 4)))
 (let (($x278 (= cell_1_3 3)))
 (let (($x1198 (= cell_1_3 2)))
 (let (($x1844 (= cell_1_3 1)))
 (or $x1844 $x1198 $x278 $x1399 $x1882 $x2061 $x551 $x1359 $x374)))))))))))
(assert
 (let (($x2088 (= cell_2_3 9)))
 (let (($x427 (= cell_2_3 8)))
 (let (($x590 (= cell_2_3 7)))
 (let (($x8 (= cell_2_3 6)))
 (let (($x1639 (= cell_2_3 5)))
 (let (($x1253 (= cell_2_3 4)))
 (let (($x534 (= cell_2_3 3)))
 (let (($x733 (= cell_2_3 2)))
 (let (($x25 (= cell_2_3 1)))
 (or $x25 $x733 $x534 $x1253 $x1639 $x8 $x590 $x427 $x2088)))))))))))
(assert
 (let (($x1011 (= cell_3_3 9)))
 (let (($x2237 (= cell_3_3 8)))
 (let (($x749 (= cell_3_3 7)))
 (let (($x961 (= cell_3_3 6)))
 (let (($x617 (= cell_3_3 5)))
 (let (($x1322 (= cell_3_3 4)))
 (let (($x820 (= cell_3_3 3)))
 (let (($x2596 (= cell_3_3 2)))
 (let (($x3197 (= cell_3_3 1)))
 (or $x3197 $x2596 $x820 $x1322 $x617 $x961 $x749 $x2237 $x1011)))))))))))
(assert
 (let (($x2024 (= cell_4_3 9)))
 (let (($x315 (= cell_4_3 8)))
 (let (($x1936 (= cell_4_3 7)))
 (let (($x1143 (= cell_4_3 6)))
 (let (($x2908 (= cell_4_3 5)))
 (let (($x2149 (= cell_4_3 4)))
 (let (($x2120 (= cell_4_3 3)))
 (let (($x2527 (= cell_4_3 2)))
 (let (($x2442 (= cell_4_3 1)))
 (or $x2442 $x2527 $x2120 $x2149 $x2908 $x1143 $x1936 $x315 $x2024)))))))))))
(assert
 (let (($x2059 (= cell_5_3 9)))
 (let (($x2551 (= cell_5_3 8)))
 (let (($x3188 (= cell_5_3 7)))
 (let (($x3199 (= cell_5_3 6)))
 (let (($x1344 (= cell_5_3 5)))
 (let (($x1116 (= cell_5_3 4)))
 (let (($x347 (= cell_5_3 3)))
 (let (($x1811 (= cell_5_3 2)))
 (let (($x3120 (= cell_5_3 1)))
 (or $x3120 $x1811 $x347 $x1116 $x1344 $x3199 $x3188 $x2551 $x2059)))))))))))
(assert
 (let (($x1537 (= cell_6_3 9)))
 (let (($x335 (= cell_6_3 8)))
 (let (($x266 (= cell_6_3 7)))
 (let (($x3161 (= cell_6_3 6)))
 (let (($x2125 (= cell_6_3 5)))
 (let (($x56 (= cell_6_3 4)))
 (let (($x2850 (= cell_6_3 3)))
 (let (($x1895 (= cell_6_3 2)))
 (let (($x923 (= cell_6_3 1)))
 (or $x923 $x1895 $x2850 $x56 $x2125 $x3161 $x266 $x335 $x1537)))))))))))
(assert
 (let (($x1066 (= cell_7_3 9)))
 (let (($x537 (= cell_7_3 8)))
 (let (($x3251 (= cell_7_3 7)))
 (let (($x1737 (= cell_7_3 6)))
 (let (($x185 (= cell_7_3 5)))
 (let (($x4015 (= cell_7_3 4)))
 (let (($x1505 (= cell_7_3 3)))
 (let (($x2914 (= cell_7_3 2)))
 (let (($x828 (= cell_7_3 1)))
 (or $x828 $x2914 $x1505 $x4015 $x185 $x1737 $x3251 $x537 $x1066)))))))))))
(assert
 (let (($x226 (= cell_8_3 9)))
 (let (($x1566 (= cell_8_3 8)))
 (let (($x1083 (= cell_8_3 7)))
 (let (($x3350 (= cell_8_3 6)))
 (let (($x1719 (= cell_8_3 5)))
 (let (($x1348 (= cell_8_3 4)))
 (let (($x364 (= cell_8_3 3)))
 (let (($x73 (= cell_8_3 2)))
 (let (($x2161 (= cell_8_3 1)))
 (or $x2161 $x73 $x364 $x1348 $x1719 $x3350 $x1083 $x1566 $x226)))))))))))
(assert
 (let (($x1336 (= cell_9_3 1)))
 (or $x1336 (= cell_9_3 2) (= cell_9_3 3) (= cell_9_3 4) (= cell_9_3 5) (= cell_9_3 6) (= cell_9_3 7) (= cell_9_3 8) (= cell_9_3 9))))
(assert
 (let (($x3089 (= cell_1_4 9)))
 (let (($x2514 (= cell_1_4 8)))
 (let (($x1177 (= cell_1_4 7)))
 (let (($x269 (= cell_1_4 6)))
 (let (($x814 (= cell_1_4 5)))
 (let (($x2883 (= cell_1_4 4)))
 (let (($x3164 (= cell_1_4 3)))
 (let (($x1927 (= cell_1_4 2)))
 (let (($x1783 (= cell_1_4 1)))
 (or $x1783 $x1927 $x3164 $x2883 $x814 $x269 $x1177 $x2514 $x3089)))))))))))
(assert
 (let (($x2307 (= cell_2_4 9)))
 (let (($x175 (= cell_2_4 8)))
 (let (($x1973 (= cell_2_4 7)))
 (let (($x377 (= cell_2_4 6)))
 (let (($x2536 (= cell_2_4 5)))
 (let (($x3351 (= cell_2_4 4)))
 (let (($x2698 (= cell_2_4 3)))
 (let (($x1874 (= cell_2_4 2)))
 (let (($x4305 (= cell_2_4 1)))
 (or $x4305 $x1874 $x2698 $x3351 $x2536 $x377 $x1973 $x175 $x2307)))))))))))
(assert
 (let (($x2360 (= cell_3_4 1)))
 (or $x2360 (= cell_3_4 2) (= cell_3_4 3) (= cell_3_4 4) (= cell_3_4 5) (= cell_3_4 6) (= cell_3_4 7) (= cell_3_4 8) (= cell_3_4 9))))
(assert
 (let (($x2829 (= cell_4_4 9)))
 (let (($x2414 (= cell_4_4 8)))
 (let (($x2381 (= cell_4_4 7)))
 (let (($x1510 (= cell_4_4 6)))
 (let (($x442 (= cell_4_4 5)))
 (let (($x1102 (= cell_4_4 4)))
 (let (($x800 (= cell_4_4 3)))
 (let (($x2701 (= cell_4_4 2)))
 (let (($x2783 (= cell_4_4 1)))
 (or $x2783 $x2701 $x800 $x1102 $x442 $x1510 $x2381 $x2414 $x2829)))))))))))
(assert
 (let (($x2877 (= cell_5_4 9)))
 (let (($x3071 (= cell_5_4 8)))
 (let (($x58 (= cell_5_4 7)))
 (let (($x2798 (= cell_5_4 6)))
 (let (($x1050 (= cell_5_4 5)))
 (let (($x1024 (= cell_5_4 4)))
 (let (($x2390 (= cell_5_4 3)))
 (let (($x708 (= cell_5_4 2)))
 (let (($x3219 (= cell_5_4 1)))
 (or $x3219 $x708 $x2390 $x1024 $x1050 $x2798 $x58 $x3071 $x2877)))))))))))
(assert
 (let (($x2752 (= cell_6_4 9)))
 (let (($x2131 (= cell_6_4 8)))
 (let (($x2831 (= cell_6_4 7)))
 (let (($x1020 (= cell_6_4 6)))
 (let (($x428 (= cell_6_4 5)))
 (let (($x909 (= cell_6_4 4)))
 (let (($x394 (= cell_6_4 3)))
 (let (($x1368 (= cell_6_4 2)))
 (let (($x2826 (= cell_6_4 1)))
 (or $x2826 $x1368 $x394 $x909 $x428 $x1020 $x2831 $x2131 $x2752)))))))))))
(assert
 (let (($x1439 (= cell_7_4 9)))
 (let (($x1092 (= cell_7_4 8)))
 (let (($x1118 (= cell_7_4 7)))
 (let (($x172 (= cell_7_4 6)))
 (let (($x357 (= cell_7_4 5)))
 (let (($x1888 (= cell_7_4 4)))
 (let (($x1893 (= cell_7_4 3)))
 (let (($x3077 (= cell_7_4 2)))
 (let (($x1814 (= cell_7_4 1)))
 (or $x1814 $x3077 $x1893 $x1888 $x357 $x172 $x1118 $x1092 $x1439)))))))))))
(assert
 (let (($x166 (= cell_8_4 9)))
 (let (($x3091 (= cell_8_4 8)))
 (let (($x3107 (= cell_8_4 7)))
 (let (($x3000 (= cell_8_4 6)))
 (let (($x3222 (= cell_8_4 5)))
 (let (($x1223 (= cell_8_4 4)))
 (let (($x2108 (= cell_8_4 3)))
 (let (($x2600 (= cell_8_4 2)))
 (let (($x510 (= cell_8_4 1)))
 (or $x510 $x2600 $x2108 $x1223 $x3222 $x3000 $x3107 $x3091 $x166)))))))))))
(assert
 (let (($x2926 (= cell_9_4 1)))
 (or $x2926 (= cell_9_4 2) (= cell_9_4 3) (= cell_9_4 4) (= cell_9_4 5) (= cell_9_4 6) (= cell_9_4 7) (= cell_9_4 8) (= cell_9_4 9))))
(assert
 (let (($x1792 (= cell_1_5 9)))
 (let (($x1981 (= cell_1_5 8)))
 (let (($x1437 (= cell_1_5 7)))
 (let (($x3090 (= cell_1_5 6)))
 (let (($x2938 (= cell_1_5 5)))
 (let (($x1552 (= cell_1_5 4)))
 (let (($x454 (= cell_1_5 3)))
 (let (($x1300 (= cell_1_5 2)))
 (let (($x501 (= cell_1_5 1)))
 (or $x501 $x1300 $x454 $x1552 $x2938 $x3090 $x1437 $x1981 $x1792)))))))))))
(assert
 (let (($x2988 (= cell_2_5 2)))
 (or (= cell_2_5 1) $x2988 (= cell_2_5 3) (= cell_2_5 4) (= cell_2_5 5) (= cell_2_5 6) (= cell_2_5 7) (= cell_2_5 8) (= cell_2_5 9))))
(assert
 (let (($x1154 (= cell_3_5 9)))
 (let (($x1971 (= cell_3_5 8)))
 (let (($x2224 (= cell_3_5 7)))
 (let (($x956 (= cell_3_5 6)))
 (let (($x386 (= cell_3_5 5)))
 (let (($x855 (= cell_3_5 4)))
 (let (($x624 (= cell_3_5 3)))
 (let (($x2144 (= cell_3_5 2)))
 (let (($x2277 (= cell_3_5 1)))
 (or $x2277 $x2144 $x624 $x855 $x386 $x956 $x2224 $x1971 $x1154)))))))))))
(assert
 (let (($x2490 (= cell_4_5 9)))
 (let (($x2994 (= cell_4_5 8)))
 (let (($x2228 (= cell_4_5 7)))
 (let (($x1325 (= cell_4_5 6)))
 (let (($x3203 (= cell_4_5 5)))
 (let (($x3156 (= cell_4_5 4)))
 (let (($x2515 (= cell_4_5 3)))
 (let (($x1494 (= cell_4_5 2)))
 (let (($x1049 (= cell_4_5 1)))
 (or $x1049 $x1494 $x2515 $x3156 $x3203 $x1325 $x2228 $x2994 $x2490)))))))))))
(assert
 (let (($x2894 (= cell_5_5 9)))
 (let (($x2517 (= cell_5_5 8)))
 (let (($x781 (= cell_5_5 7)))
 (let (($x2085 (= cell_5_5 6)))
 (let (($x103 (= cell_5_5 5)))
 (let (($x1609 (= cell_5_5 4)))
 (let (($x1794 (= cell_5_5 3)))
 (let (($x1269 (= cell_5_5 2)))
 (let (($x3037 (= cell_5_5 1)))
 (or $x3037 $x1269 $x1794 $x1609 $x103 $x2085 $x781 $x2517 $x2894)))))))))))
(assert
 (let (($x2116 (= cell_6_5 9)))
 (let (($x3367 (= cell_6_5 8)))
 (let (($x2804 (= cell_6_5 7)))
 (let (($x2020 (= cell_6_5 6)))
 (let (($x2791 (= cell_6_5 5)))
 (let (($x639 (= cell_6_5 4)))
 (let (($x1333 (= cell_6_5 3)))
 (let (($x2404 (= cell_6_5 2)))
 (let (($x1245 (= cell_6_5 1)))
 (or $x1245 $x2404 $x1333 $x639 $x2791 $x2020 $x2804 $x3367 $x2116)))))))))))
(assert
 (let (($x171 (= cell_7_5 9)))
 (let (($x693 (= cell_7_5 8)))
 (let (($x2038 (= cell_7_5 7)))
 (let (($x1810 (= cell_7_5 6)))
 (let (($x478 (= cell_7_5 5)))
 (let (($x732 (= cell_7_5 4)))
 (let (($x3223 (= cell_7_5 3)))
 (let (($x3039 (= cell_7_5 2)))
 (let (($x2298 (= cell_7_5 1)))
 (or $x2298 $x3039 $x3223 $x732 $x478 $x1810 $x2038 $x693 $x171)))))))))))
(assert
 (let (($x2260 (= cell_8_5 1)))
 (or $x2260 (= cell_8_5 2) (= cell_8_5 3) (= cell_8_5 4) (= cell_8_5 5) (= cell_8_5 6) (= cell_8_5 7) (= cell_8_5 8) (= cell_8_5 9))))
(assert
 (let (($x1338 (= cell_9_5 2)))
 (let (($x3034 (= cell_9_5 1)))
 (or $x3034 $x1338 (= cell_9_5 3) (= cell_9_5 4) (= cell_9_5 5) (= cell_9_5 6) (= cell_9_5 7) (= cell_9_5 8) (= cell_9_5 9)))))
(assert
 (let (($x1496 (= cell_1_6 9)))
 (let (($x97 (= cell_1_6 8)))
 (let (($x3417 (= cell_1_6 7)))
 (let (($x1863 (= cell_1_6 6)))
 (let (($x1768 (= cell_1_6 5)))
 (let (($x3106 (= cell_1_6 4)))
 (let (($x857 (= cell_1_6 3)))
 (let (($x1594 (= cell_1_6 2)))
 (let (($x2976 (= cell_1_6 1)))
 (or $x2976 $x1594 $x857 $x3106 $x1768 $x1863 $x3417 $x97 $x1496)))))))))))
(assert
 (let (($x1548 (= cell_2_6 9)))
 (let (($x1605 (= cell_2_6 8)))
 (let (($x2348 (= cell_2_6 7)))
 (let (($x1673 (= cell_2_6 6)))
 (let (($x2441 (= cell_2_6 5)))
 (let (($x1389 (= cell_2_6 4)))
 (let (($x657 (= cell_2_6 3)))
 (let (($x700 (= cell_2_6 2)))
 (let (($x324 (= cell_2_6 1)))
 (or $x324 $x700 $x657 $x1389 $x2441 $x1673 $x2348 $x1605 $x1548)))))))))))
(assert
 (let (($x1009 (= cell_3_6 9)))
 (let (($x2753 (= cell_3_6 8)))
 (let (($x2217 (= cell_3_6 7)))
 (let (($x1747 (= cell_3_6 6)))
 (let (($x804 (= cell_3_6 5)))
 (let (($x2802 (= cell_3_6 4)))
 (let (($x965 (= cell_3_6 3)))
 (let (($x1044 (= cell_3_6 2)))
 (let (($x741 (= cell_3_6 1)))
 (or $x741 $x1044 $x965 $x2802 $x804 $x1747 $x2217 $x2753 $x1009)))))))))))
(assert
 (let (($x1875 (= cell_4_6 9)))
 (let (($x2993 (= cell_4_6 8)))
 (let (($x1569 (= cell_4_6 7)))
 (let (($x1631 (= cell_4_6 6)))
 (let (($x3131 (= cell_4_6 5)))
 (let (($x4444 (= cell_4_6 4)))
 (let (($x611 (= cell_4_6 3)))
 (let (($x7 (= cell_4_6 2)))
 (let (($x2998 (= cell_4_6 1)))
 (or $x2998 $x7 $x611 $x4444 $x3131 $x1631 $x1569 $x2993 $x1875)))))))))))
(assert
 (let (($x3035 (= cell_5_6 9)))
 (let (($x1902 (= cell_5_6 8)))
 (let (($x2580 (= cell_5_6 7)))
 (let (($x2096 (= cell_5_6 6)))
 (let (($x1214 (= cell_5_6 5)))
 (let (($x572 (= cell_5_6 4)))
 (let (($x3259 (= cell_5_6 3)))
 (let (($x1618 (= cell_5_6 2)))
 (let (($x479 (= cell_5_6 1)))
 (or $x479 $x1618 $x3259 $x572 $x1214 $x2096 $x2580 $x1902 $x3035)))))))))))
(assert
 (let (($x2143 (= cell_6_6 1)))
 (or $x2143 (= cell_6_6 2) (= cell_6_6 3) (= cell_6_6 4) (= cell_6_6 5) (= cell_6_6 6) (= cell_6_6 7) (= cell_6_6 8) (= cell_6_6 9))))
(assert
 (let (($x3379 (= cell_7_6 9)))
 (let (($x1464 (= cell_7_6 8)))
 (let (($x904 (= cell_7_6 7)))
 (let (($x1524 (= cell_7_6 6)))
 (let (($x1501 (= cell_7_6 5)))
 (let (($x747 (= cell_7_6 4)))
 (let (($x981 (= cell_7_6 3)))
 (let (($x863 (= cell_7_6 2)))
 (let (($x2030 (= cell_7_6 1)))
 (or $x2030 $x863 $x981 $x747 $x1501 $x1524 $x904 $x1464 $x3379)))))))))))
(assert
 (let (($x1421 (= cell_8_6 1)))
 (or $x1421 (= cell_8_6 2) (= cell_8_6 3) (= cell_8_6 4) (= cell_8_6 5) (= cell_8_6 6) (= cell_8_6 7) (= cell_8_6 8) (= cell_8_6 9))))
(assert
 (let (($x722 (= cell_9_6 1)))
 (or $x722 (= cell_9_6 2) (= cell_9_6 3) (= cell_9_6 4) (= cell_9_6 5) (= cell_9_6 6) (= cell_9_6 7) (= cell_9_6 8) (= cell_9_6 9))))
(assert
 (let (($x1375 (= cell_1_7 9)))
 (let (($x2488 (= cell_1_7 8)))
 (let (($x2263 (= cell_1_7 7)))
 (let (($x1303 (= cell_1_7 6)))
 (let (($x2147 (= cell_1_7 5)))
 (let (($x411 (= cell_1_7 4)))
 (let (($x160 (= cell_1_7 3)))
 (let (($x3409 (= cell_1_7 2)))
 (let (($x3060 (= cell_1_7 1)))
 (or $x3060 $x3409 $x160 $x411 $x2147 $x1303 $x2263 $x2488 $x1375)))))))))))
(assert
 (let (($x2995 (= cell_2_7 9)))
 (let (($x2810 (= cell_2_7 8)))
 (let (($x1522 (= cell_2_7 7)))
 (let (($x1851 (= cell_2_7 6)))
 (let (($x106 (= cell_2_7 5)))
 (let (($x2366 (= cell_2_7 4)))
 (let (($x3098 (= cell_2_7 3)))
 (let (($x1075 (= cell_2_7 2)))
 (let (($x1402 (= cell_2_7 1)))
 (or $x1402 $x1075 $x3098 $x2366 $x106 $x1851 $x1522 $x2810 $x2995)))))))))))
(assert
 (let (($x3015 (= cell_3_7 9)))
 (let (($x2971 (= cell_3_7 8)))
 (let (($x2156 (= cell_3_7 7)))
 (let (($x2897 (= cell_3_7 6)))
 (let (($x419 (= cell_3_7 5)))
 (let (($x1867 (= cell_3_7 4)))
 (let (($x3327 (= cell_3_7 3)))
 (let (($x646 (= cell_3_7 2)))
 (let (($x3315 (= cell_3_7 1)))
 (or $x3315 $x646 $x3327 $x1867 $x419 $x2897 $x2156 $x2971 $x3015)))))))))))
(assert
 (let (($x3134 (= cell_4_7 9)))
 (let (($x2262 (= cell_4_7 8)))
 (let (($x1711 (= cell_4_7 7)))
 (let (($x3355 (= cell_4_7 6)))
 (let (($x849 (= cell_4_7 5)))
 (let (($x2235 (= cell_4_7 4)))
 (let (($x1025 (= cell_4_7 3)))
 (let (($x2954 (= cell_4_7 2)))
 (let (($x549 (= cell_4_7 1)))
 (or $x549 $x2954 $x1025 $x2235 $x849 $x3355 $x1711 $x2262 $x3134)))))))))))
(assert
 (let (($x2875 (= cell_5_7 9)))
 (let (($x2782 (= cell_5_7 8)))
 (let (($x3084 (= cell_5_7 7)))
 (let (($x2411 (= cell_5_7 6)))
 (let (($x68 (= cell_5_7 5)))
 (let (($x2412 (= cell_5_7 4)))
 (let (($x1650 (= cell_5_7 3)))
 (let (($x1504 (= cell_5_7 2)))
 (let (($x2984 (= cell_5_7 1)))
 (or $x2984 $x1504 $x1650 $x2412 $x68 $x2411 $x3084 $x2782 $x2875)))))))))))
(assert
 (let (($x1415 (= cell_6_7 9)))
 (let (($x852 (= cell_6_7 8)))
 (let (($x136 (= cell_6_7 7)))
 (let (($x1084 (= cell_6_7 6)))
 (let (($x421 (= cell_6_7 5)))
 (let (($x1331 (= cell_6_7 4)))
 (let (($x8295 (= cell_6_7 3)))
 (let (($x2684 (= cell_6_7 2)))
 (let (($x261 (= cell_6_7 1)))
 (or $x261 $x2684 $x8295 $x1331 $x421 $x1084 $x136 $x852 $x1415)))))))))))
(assert
 (let (($x2489 (= cell_7_7 1)))
 (or $x2489 (= cell_7_7 2) (= cell_7_7 3) (= cell_7_7 4) (= cell_7_7 5) (= cell_7_7 6) (= cell_7_7 7) (= cell_7_7 8) (= cell_7_7 9))))
(assert
 (let (($x2423 (= cell_8_7 1)))
 (or $x2423 (= cell_8_7 2) (= cell_8_7 3) (= cell_8_7 4) (= cell_8_7 5) (= cell_8_7 6) (= cell_8_7 7) (= cell_8_7 8) (= cell_8_7 9))))
(assert
 (let (($x751 (= cell_9_7 1)))
 (or $x751 (= cell_9_7 2) (= cell_9_7 3) (= cell_9_7 4) (= cell_9_7 5) (= cell_9_7 6) (= cell_9_7 7) (= cell_9_7 8) (= cell_9_7 9))))
(assert
 (let (($x93 (= cell_1_8 1)))
 (or $x93 (= cell_1_8 2) (= cell_1_8 3) (= cell_1_8 4) (= cell_1_8 5) (= cell_1_8 6) (= cell_1_8 7) (= cell_1_8 8) (= cell_1_8 9))))
(assert
 (let (($x2689 (= cell_2_8 2)))
 (let (($x2944 (= cell_2_8 1)))
 (or $x2944 $x2689 (= cell_2_8 3) (= cell_2_8 4) (= cell_2_8 5) (= cell_2_8 6) (= cell_2_8 7) (= cell_2_8 8) (= cell_2_8 9)))))
(assert
 (let (($x2950 (= cell_3_8 2)))
 (let (($x3399 (= cell_3_8 1)))
 (or $x3399 $x2950 (= cell_3_8 3) (= cell_3_8 4) (= cell_3_8 5) (= cell_3_8 6) (= cell_3_8 7) (= cell_3_8 8) (= cell_3_8 9)))))
(assert
 (let (($x7340 (= cell_4_8 9)))
 (let (($x3026 (= cell_4_8 8)))
 (let (($x1889 (= cell_4_8 7)))
 (let (($x1740 (= cell_4_8 6)))
 (let (($x7600 (= cell_4_8 5)))
 (let (($x1202 (= cell_4_8 4)))
 (let (($x3527 (= cell_4_8 3)))
 (let (($x412 (= cell_4_8 2)))
 (let (($x2774 (= cell_4_8 1)))
 (or $x2774 $x412 $x3527 $x1202 $x7600 $x1740 $x1889 $x3026 $x7340)))))))))))
(assert
 (let (($x2353 (= cell_5_8 1)))
 (or $x2353 (= cell_5_8 2) (= cell_5_8 3) (= cell_5_8 4) (= cell_5_8 5) (= cell_5_8 6) (= cell_5_8 7) (= cell_5_8 8) (= cell_5_8 9))))
(assert
 (let (($x2270 (= cell_6_8 9)))
 (let (($x2071 (= cell_6_8 8)))
 (let (($x2166 (= cell_6_8 7)))
 (let (($x7980 (= cell_6_8 6)))
 (let (($x320 (= cell_6_8 5)))
 (let (($x792 (= cell_6_8 4)))
 (let (($x3258 (= cell_6_8 3)))
 (let (($x715 (= cell_6_8 2)))
 (let (($x2306 (= cell_6_8 1)))
 (or $x2306 $x715 $x3258 $x792 $x320 $x7980 $x2166 $x2071 $x2270)))))))))))
(assert
 (let (($x543 (= cell_7_8 1)))
 (or $x543 (= cell_7_8 2) (= cell_7_8 3) (= cell_7_8 4) (= cell_7_8 5) (= cell_7_8 6) (= cell_7_8 7) (= cell_7_8 8) (= cell_7_8 9))))
(assert
 (let (($x2557 (= cell_8_8 1)))
 (or $x2557 (= cell_8_8 2) (= cell_8_8 3) (= cell_8_8 4) (= cell_8_8 5) (= cell_8_8 6) (= cell_8_8 7) (= cell_8_8 8) (= cell_8_8 9))))
(assert
 (let (($x1346 (= cell_9_8 1)))
 (or $x1346 (= cell_9_8 2) (= cell_9_8 3) (= cell_9_8 4) (= cell_9_8 5) (= cell_9_8 6) (= cell_9_8 7) (= cell_9_8 8) (= cell_9_8 9))))
(assert
 (let (($x2372 (= cell_1_9 2)))
 (or (= cell_1_9 1) $x2372 (= cell_1_9 3) (= cell_1_9 4) (= cell_1_9 5) (= cell_1_9 6) (= cell_1_9 7) (= cell_1_9 8) (= cell_1_9 9))))
(assert
 (let (($x483 (= cell_2_9 9)))
 (let (($x1273 (= cell_2_9 8)))
 (let (($x3274 (= cell_2_9 7)))
 (let (($x2612 (= cell_2_9 6)))
 (let (($x2846 (= cell_2_9 5)))
 (let (($x369 (= cell_2_9 4)))
 (let (($x3395 (= cell_2_9 3)))
 (let (($x2539 (= cell_2_9 2)))
 (let (($x2785 (= cell_2_9 1)))
 (or $x2785 $x2539 $x3395 $x369 $x2846 $x2612 $x3274 $x1273 $x483)))))))))))
(assert
 (let (($x2691 (= cell_3_9 9)))
 (let (($x568 (= cell_3_9 8)))
 (let (($x3736 (= cell_3_9 7)))
 (let (($x3344 (= cell_3_9 6)))
 (let (($x985 (= cell_3_9 5)))
 (let (($x905 (= cell_3_9 4)))
 (let (($x1038 (= cell_3_9 3)))
 (let (($x326 (= cell_3_9 2)))
 (let (($x464 (= cell_3_9 1)))
 (or $x464 $x326 $x1038 $x905 $x985 $x3344 $x3736 $x568 $x2691)))))))))))
(assert
 (let (($x1706 (= cell_4_9 1)))
 (or $x1706 (= cell_4_9 2) (= cell_4_9 3) (= cell_4_9 4) (= cell_4_9 5) (= cell_4_9 6) (= cell_4_9 7) (= cell_4_9 8) (= cell_4_9 9))))
(assert
 (let (($x2268 (= cell_5_9 9)))
 (let (($x2803 (= cell_5_9 8)))
 (let (($x684 (= cell_5_9 7)))
 (let (($x2980 (= cell_5_9 6)))
 (let (($x2436 (= cell_5_9 5)))
 (let (($x2773 (= cell_5_9 4)))
 (let (($x2045 (= cell_5_9 3)))
 (let (($x201 (= cell_5_9 2)))
 (let (($x1428 (= cell_5_9 1)))
 (or $x1428 $x201 $x2045 $x2773 $x2436 $x2980 $x684 $x2803 $x2268)))))))))))
(assert
 (let (($x825 (= cell_6_9 2)))
 (let (($x1137 (= cell_6_9 1)))
 (or $x1137 $x825 (= cell_6_9 3) (= cell_6_9 4) (= cell_6_9 5) (= cell_6_9 6) (= cell_6_9 7) (= cell_6_9 8) (= cell_6_9 9)))))
(assert
 (let (($x1418 (= cell_7_9 2)))
 (let (($x487 (= cell_7_9 1)))
 (or $x487 $x1418 (= cell_7_9 3) (= cell_7_9 4) (= cell_7_9 5) (= cell_7_9 6) (= cell_7_9 7) (= cell_7_9 8) (= cell_7_9 9)))))
(assert
 (let (($x2165 (= cell_8_9 2)))
 (let (($x1516 (= cell_8_9 1)))
 (or $x1516 $x2165 (= cell_8_9 3) (= cell_8_9 4) (= cell_8_9 5) (= cell_8_9 6) (= cell_8_9 7) (= cell_8_9 8) (= cell_8_9 9)))))
(assert
 (let (($x477 (= cell_9_9 2)))
 (let (($x2776 (= cell_9_9 1)))
 (or $x2776 $x477 (= cell_9_9 3) (= cell_9_9 4) (= cell_9_9 5) (= cell_9_9 6) (= cell_9_9 7) (= cell_9_9 8) (= cell_9_9 9)))))
(assert
 (and (distinct cell_1_1 cell_1_2 cell_1_3 cell_1_4 cell_1_5 cell_1_6 cell_1_7 cell_1_8 cell_1_9) true))
(assert
 (and (distinct cell_2_1 cell_2_2 cell_2_3 cell_2_4 cell_2_5 cell_2_6 cell_2_7 cell_2_8 cell_2_9) true))
(assert
 (and (distinct cell_3_1 cell_3_2 cell_3_3 cell_3_4 cell_3_5 cell_3_6 cell_3_7 cell_3_8 cell_3_9) true))
(assert
 (and (distinct cell_4_1 cell_4_2 cell_4_3 cell_4_4 cell_4_5 cell_4_6 cell_4_7 cell_4_8 cell_4_9) true))
(assert
 (and (distinct cell_5_1 cell_5_2 cell_5_3 cell_5_4 cell_5_5 cell_5_6 cell_5_7 cell_5_8 cell_5_9) true))
(assert
 (and (distinct cell_6_1 cell_6_2 cell_6_3 cell_6_4 cell_6_5 cell_6_6 cell_6_7 cell_6_8 cell_6_9) true))
(assert
 (and (distinct cell_7_1 cell_7_2 cell_7_3 cell_7_4 cell_7_5 cell_7_6 cell_7_7 cell_7_8 cell_7_9) true))
(assert
 (and (distinct cell_8_1 cell_8_2 cell_8_3 cell_8_4 cell_8_5 cell_8_6 cell_8_7 cell_8_8 cell_8_9) true))
(assert
 (and (distinct cell_9_1 cell_9_2 cell_9_3 cell_9_4 cell_9_5 cell_9_6 cell_9_7 cell_9_8 cell_9_9) true))
(assert
 (and (distinct cell_1_1 cell_2_1 cell_3_1 cell_4_1 cell_5_1 cell_6_1 cell_7_1 cell_8_1 cell_9_1) true))
(assert
 (and (distinct cell_1_2 cell_2_2 cell_3_2 cell_4_2 cell_5_2 cell_6_2 cell_7_2 cell_8_2 cell_9_2) true))
(assert
 (and (distinct cell_1_3 cell_2_3 cell_3_3 cell_4_3 cell_5_3 cell_6_3 cell_7_3 cell_8_3 cell_9_3) true))
(assert
 (and (distinct cell_1_4 cell_2_4 cell_3_4 cell_4_4 cell_5_4 cell_6_4 cell_7_4 cell_8_4 cell_9_4) true))
(assert
 (and (distinct cell_1_5 cell_2_5 cell_3_5 cell_4_5 cell_5_5 cell_6_5 cell_7_5 cell_8_5 cell_9_5) true))
(assert
 (and (distinct cell_1_6 cell_2_6 cell_3_6 cell_4_6 cell_5_6 cell_6_6 cell_7_6 cell_8_6 cell_9_6) true))
(assert
 (and (distinct cell_1_7 cell_2_7 cell_3_7 cell_4_7 cell_5_7 cell_6_7 cell_7_7 cell_8_7 cell_9_7) true))
(assert
 (and (distinct cell_1_8 cell_2_8 cell_3_8 cell_4_8 cell_5_8 cell_6_8 cell_7_8 cell_8_8 cell_9_8) true))
(assert
 (and (distinct cell_1_9 cell_2_9 cell_3_9 cell_4_9 cell_5_9 cell_6_9 cell_7_9 cell_8_9 cell_9_9) true))
(assert
 (and (distinct cell_1_1 cell_1_2 cell_1_3 cell_2_1 cell_2_2 cell_2_3 cell_3_1 cell_3_2 cell_3_3) true))
(assert
 (and (distinct cell_1_4 cell_1_5 cell_1_6 cell_2_4 cell_2_5 cell_2_6 cell_3_4 cell_3_5 cell_3_6) true))
(assert
 (and (distinct cell_1_7 cell_1_8 cell_1_9 cell_2_7 cell_2_8 cell_2_9 cell_3_7 cell_3_8 cell_3_9) true))
(assert
 (and (distinct cell_4_1 cell_4_2 cell_4_3 cell_5_1 cell_5_2 cell_5_3 cell_6_1 cell_6_2 cell_6_3) true))
(assert
 (and (distinct cell_4_4 cell_4_5 cell_4_6 cell_5_4 cell_5_5 cell_5_6 cell_6_4 cell_6_5 cell_6_6) true))
(assert
 (and (distinct cell_4_7 cell_4_8 cell_4_9 cell_5_7 cell_5_8 cell_5_9 cell_6_7 cell_6_8 cell_6_9) true))
(assert
 (and (distinct cell_7_1 cell_7_2 cell_7_3 cell_8_1 cell_8_2 cell_8_3 cell_9_1 cell_9_2 cell_9_3) true))
(assert
 (and (distinct cell_7_4 cell_7_5 cell_7_6 cell_8_4 cell_8_5 cell_8_6 cell_9_4 cell_9_5 cell_9_6) true))
(assert
 (and (distinct cell_7_7 cell_7_8 cell_7_9 cell_8_7 cell_8_8 cell_8_9 cell_9_7 cell_9_8 cell_9_9) true))
(assert
 (let (($x3018 (and (distinct cell_5_9 cell_6_8 cell_7_7 cell_8_6) true)))
 (let (($x1951 (and (distinct cell_2_9 cell_3_8 cell_4_7 cell_5_6 cell_6_5 cell_7_4 cell_8_3 cell_9_2) true)))
 (let (($x2887 (and (distinct cell_1_8 cell_2_7 cell_3_6 cell_4_5 cell_5_4 cell_6_3 cell_7_2 cell_8_1) true)))
 (let (($x2122 (and (distinct cell_1_5 cell_2_4 cell_3_3 cell_4_2) true)))
 (let (($x372 (and (distinct cell_5_1 cell_6_2 cell_7_3 cell_8_4) true)))
 (let (($x3400 (and (distinct cell_2_1 cell_3_2 cell_4_3 cell_5_4 cell_6_5 cell_7_6 cell_8_7 cell_9_8) true)))
 (let (($x1869 (and (distinct cell_1_2 cell_2_3 cell_3_4 cell_4_5 cell_5_6 cell_6_7 cell_7_8 cell_8_9) true)))
 (let (($x1656 (and (distinct cell_1_5 cell_2_6 cell_3_7 cell_4_8) true)))
 (and $x1656 $x1869 $x3400 $x372 $x2122 $x2887 $x1951 $x3018))))))))))
(assert
 (and (distinct cell_5_4 2) true))
(check-sat)
